p cnf 13 22
-13 12 -1 0
-13 10 -8 0
13 10 -7 0
13 9 -8 0
-13 3 -1 0
13 2 -1 0
-12 10 -9 0
12 -10 6 0
-12 -10 -6 0
12 -10 -1 0
12 5 3 0
12 2 1 0
11 -8 -3 0
-11 6 5 0
-10 9 7 0
-10 -9 -6 0
-10 -9 4 0
-10 8 5 0
-10 -7 -5 0
-10 -5 3 0
-8 -7 -2 0
-5 -3 -2 0
